[VALIDATOR STDOUT]
Type-checking move
...action passes type checking.
Type-checking pick
...action passes type checking.
Type-checking drop
...action passes type checking.
Checking plan: /home/jfan5/Safety-gen/runs/benchmark/optic/grippers_20260215_225302/grippers/optic_results/grippers-n3-r33-o31-s31001.plan
Plan to validate:

Plan size: 124
1:
(pick robot2 ball11 room8 lgripper2)
 
2:
(move robot1 room21 room9)
 
3:
(move robot3 room12 room9)
 
4:
(move robot2 room8 room22)
 
5:
(pick robot1 ball12 room9 lgripper1)
 
6:
(move robot3 room9 room8)
 
7:
(drop robot2 ball11 room22 lgripper2)
 
8:
(move robot1 room9 room12)
 
9:
(move robot3 room8 room6)
 
10:
(drop robot1 ball12 room12 lgripper1)
 
11:
(move robot2 room22 room7)
 
12:
(pick robot3 ball6 room6 lgripper3)
 
13:
(move robot3 room6 room11)
 
14:
(move robot1 room12 room33)
 
15:
(move robot2 room7 room10)
 
16:
(drop robot3 ball6 room11 lgripper3)
 
17:
(pick robot1 ball4 room33 lgripper1)
 
18:
(pick robot2 ball2 room10 lgripper2)
 
19:
(pick robot2 ball15 room10 rgripper2)
 
20:
(move robot1 room33 room27)
 
21:
(move robot2 room10 room22)
 
22:
(move robot3 room11 room8)
 
23:
(drop robot1 ball4 room27 lgripper1)
 
24:
(drop robot2 ball15 room22 rgripper2)
 
25:
(pick robot1 ball23 room27 rgripper1)
 
26:
(move robot3 room8 room32)
 
27:
(move robot2 room22 room12)
 
28:
(move robot1 room27 room32)
 
29:
(pick robot3 ball7 room32 lgripper3)
 
30:
(drop robot2 ball2 room12 lgripper2)
 
31:
(drop robot1 ball23 room32 rgripper1)
 
32:
(move robot3 room32 room7)
 
33:
(move robot3 room7 room25)
 
34:
(move robot2 room12 room30)
 
35:
(move robot1 room32 room2)
 
36:
(pick robot2 ball22 room30 lgripper2)
 
37:
(pick robot1 ball30 room2 lgripper1)
 
38:
(pick robot1 ball28 room2 rgripper1)
 
39:
(drop robot3 ball7 room25 lgripper3)
 
40:
(pick robot3 ball3 room25 rgripper3)
 
41:
(move robot1 room2 room8)
 
42:
(move robot2 room30 room22)
 
43:
(move robot3 room25 room6)
 
44:
(drop robot1 ball28 room8 rgripper1)
 
45:
(drop robot2 ball22 room22 lgripper2)
 
46:
(drop robot3 ball3 room6 rgripper3)
 
47:
(move robot1 room8 room30)
 
48:
(move robot2 room22 room7)
 
49:
(move robot3 room6 room3)
 
50:
(drop robot1 ball30 room30 lgripper1)
 
51:
(pick robot3 ball26 room3 lgripper3)
 
52:
(pick robot3 ball13 room3 rgripper3)
 
53:
(move robot2 room7 room5)
 
54:
(move robot1 room30 room7)
 
55:
(move robot3 room3 room18)
 
56:
(pick robot2 ball1 room5 lgripper2)
 
57:
(drop robot3 ball13 room18 rgripper3)
 
58:
(move robot2 room5 room32)
 
59:
(move robot1 room7 room4)
 
60:
(move robot3 room18 room1)
 
61:
(pick robot2 ball20 room32 rgripper2)
 
62:
(pick robot1 ball14 room4 lgripper1)
 
63:
(drop robot3 ball26 room1 lgripper3)
 
64:
(move robot2 room32 room5)
 
65:
(move robot1 room4 room7)
 
66:
(drop robot2 ball20 room5 rgripper2)
 
67:
(move robot3 room1 room26)
 
68:
(move robot1 room7 room6)
 
69:
(move robot2 room5 room27)
 
70:
(pick robot3 ball9 room26 lgripper3)
 
71:
(move robot1 room6 room25)
 
72:
(drop robot2 ball1 room27 lgripper2)
 
73:
(move robot3 room26 room4)
 
74:
(pick robot2 ball21 room27 rgripper2)
 
75:
(drop robot1 ball14 room25 lgripper1)
 
76:
(pick robot1 ball18 room25 rgripper1)
 
77:
(drop robot3 ball9 room4 lgripper3)
 
78:
(move robot2 room27 room7)
 
79:
(move robot1 room25 room7)
 
80:
(drop robot2 ball21 room7 rgripper2)
 
81:
(move robot3 room4 room27)
 
82:
(move robot1 room7 room14)
 
83:
(drop robot1 ball18 room14 rgripper1)
 
84:
(pick robot3 ball19 room27 lgripper3)
 
85:
(pick robot1 ball31 room14 lgripper1)
 
86:
(move robot2 room7 room28)
 
87:
(move robot3 room27 room25)
 
88:
(move robot1 room14 room21)
 
89:
(pick robot2 ball27 room28 lgripper2)
 
90:
(pick robot2 ball24 room28 rgripper2)
 
91:
(drop robot3 ball19 room25 lgripper3)
 
92:
(drop robot1 ball31 room21 lgripper1)
 
93:
(move robot2 room28 room29)
 
94:
(drop robot2 ball27 room29 lgripper2)
 
95:
(move robot1 room21 room7)
 
96:
(move robot3 room25 room7)
 
97:
(move robot2 room29 room1)
 
98:
(move robot1 room7 room23)
 
99:
(move robot3 room7 room15)
 
100:
(drop robot2 ball24 room1 rgripper2)
 
101:
(pick robot1 ball10 room23 lgripper1)
 
102:
(pick robot3 ball17 room15 lgripper3)
 
103:
(move robot1 room23 room15)
 
104:
(move robot3 room15 room6)
 
105:
(move robot2 room1 room14)
 
106:
(drop robot1 ball10 room15 lgripper1)
 
107:
(drop robot3 ball17 room6 lgripper3)
 
108:
(pick robot2 ball16 room14 lgripper2)
 
109:
(move robot2 room14 room32)
 
110:
(move robot1 room15 room7)
 
111:
(move robot3 room6 room29)
 
112:
(drop robot2 ball16 room32 lgripper2)
 
113:
(move robot3 room29 room18)
 
114:
(move robot1 room7 room18)
 
115:
(pick robot3 ball8 room18 lgripper3)
 
116:
(pick robot3 ball5 room18 rgripper3)
 
117:
(move robot2 room32 room7)
 
118:
(pick robot1 ball25 room18 lgripper1)
 
119:
(move robot1 room18 room7)
 
120:
(move robot3 room18 room29)
 
121:
(drop robot3 ball5 room29 rgripper3)
 
122:
(drop robot1 ball25 room7 lgripper1)
 
123:
(move robot3 room29 room14)
 
124:
(drop robot3 ball8 room14 lgripper3)
 

Plan Validation details
-----------------------

Checking next happening (time 1)
Deleting (at ball11 room8)
Deleting (free robot2 lgripper2)
Adding (carry robot2 ball11 lgripper2)

Checking next happening (time 2)
Deleting (at-robby robot1 room21)
Adding (at-robby robot1 room9)

Checking next happening (time 3)
Deleting (at-robby robot3 room12)
Adding (at-robby robot3 room9)

Checking next happening (time 4)
Deleting (at-robby robot2 room8)
Adding (at-robby robot2 room22)

Checking next happening (time 5)
Deleting (at ball12 room9)
Deleting (free robot1 lgripper1)
Adding (carry robot1 ball12 lgripper1)

Checking next happening (time 6)
Deleting (at-robby robot3 room9)
Adding (at-robby robot3 room8)

Checking next happening (time 7)
Deleting (carry robot2 ball11 lgripper2)
Adding (at ball11 room22)
Adding (free robot2 lgripper2)

Checking next happening (time 8)
Deleting (at-robby robot1 room9)
Adding (at-robby robot1 room12)

Checking next happening (time 9)
Deleting (at-robby robot3 room8)
Adding (at-robby robot3 room6)

Checking next happening (time 10)
Deleting (carry robot1 ball12 lgripper1)
Adding (at ball12 room12)
Adding (free robot1 lgripper1)

Checking next happening (time 11)
Deleting (at-robby robot2 room22)
Adding (at-robby robot2 room7)

Checking next happening (time 12)
Deleting (at ball6 room6)
Deleting (free robot3 lgripper3)
Adding (carry robot3 ball6 lgripper3)

Checking next happening (time 13)
Deleting (at-robby robot3 room6)
Adding (at-robby robot3 room11)

Checking next happening (time 14)
Deleting (at-robby robot1 room12)
Adding (at-robby robot1 room33)

Checking next happening (time 15)
Deleting (at-robby robot2 room7)
Adding (at-robby robot2 room10)

Checking next happening (time 16)
Deleting (carry robot3 ball6 lgripper3)
Adding (at ball6 room11)
Adding (free robot3 lgripper3)

Checking next happening (time 17)
Deleting (at ball4 room33)
Deleting (free robot1 lgripper1)
Adding (carry robot1 ball4 lgripper1)

Checking next happening (time 18)
Deleting (at ball2 room10)
Deleting (free robot2 lgripper2)
Adding (carry robot2 ball2 lgripper2)

Checking next happening (time 19)
Deleting (at ball15 room10)
Deleting (free robot2 rgripper2)
Adding (carry robot2 ball15 rgripper2)

Checking next happening (time 20)
Deleting (at-robby robot1 room33)
Adding (at-robby robot1 room27)

Checking next happening (time 21)
Deleting (at-robby robot2 room10)
Adding (at-robby robot2 room22)

Checking next happening (time 22)
Deleting (at-robby robot3 room11)
Adding (at-robby robot3 room8)

Checking next happening (time 23)
Deleting (carry robot1 ball4 lgripper1)
Adding (at ball4 room27)
Adding (free robot1 lgripper1)

Checking next happening (time 24)
Deleting (carry robot2 ball15 rgripper2)
Adding (at ball15 room22)
Adding (free robot2 rgripper2)

Checking next happening (time 25)
Deleting (at ball23 room27)
Deleting (free robot1 rgripper1)
Adding (carry robot1 ball23 rgripper1)

Checking next happening (time 26)
Deleting (at-robby robot3 room8)
Adding (at-robby robot3 room32)

Checking next happening (time 27)
Deleting (at-robby robot2 room22)
Adding (at-robby robot2 room12)

Checking next happening (time 28)
Deleting (at-robby robot1 room27)
Adding (at-robby robot1 room32)

Checking next happening (time 29)
Deleting (at ball7 room32)
Deleting (free robot3 lgripper3)
Adding (carry robot3 ball7 lgripper3)

Checking next happening (time 30)
Deleting (carry robot2 ball2 lgripper2)
Adding (at ball2 room12)
Adding (free robot2 lgripper2)

Checking next happening (time 31)
Deleting (carry robot1 ball23 rgripper1)
Adding (at ball23 room32)
Adding (free robot1 rgripper1)

Checking next happening (time 32)
Deleting (at-robby robot3 room32)
Adding (at-robby robot3 room7)

Checking next happening (time 33)
Deleting (at-robby robot3 room7)
Adding (at-robby robot3 room25)

Checking next happening (time 34)
Deleting (at-robby robot2 room12)
Adding (at-robby robot2 room30)

Checking next happening (time 35)
Deleting (at-robby robot1 room32)
Adding (at-robby robot1 room2)

Checking next happening (time 36)
Deleting (at ball22 room30)
Deleting (free robot2 lgripper2)
Adding (carry robot2 ball22 lgripper2)

Checking next happening (time 37)
Deleting (at ball30 room2)
Deleting (free robot1 lgripper1)
Adding (carry robot1 ball30 lgripper1)

Checking next happening (time 38)
Deleting (at ball28 room2)
Deleting (free robot1 rgripper1)
Adding (carry robot1 ball28 rgripper1)

Checking next happening (time 39)
Deleting (carry robot3 ball7 lgripper3)
Adding (at ball7 room25)
Adding (free robot3 lgripper3)

Checking next happening (time 40)
Deleting (at ball3 room25)
Deleting (free robot3 rgripper3)
Adding (carry robot3 ball3 rgripper3)

Checking next happening (time 41)
Deleting (at-robby robot1 room2)
Adding (at-robby robot1 room8)

Checking next happening (time 42)
Deleting (at-robby robot2 room30)
Adding (at-robby robot2 room22)

Checking next happening (time 43)
Deleting (at-robby robot3 room25)
Adding (at-robby robot3 room6)

Checking next happening (time 44)
Deleting (carry robot1 ball28 rgripper1)
Adding (at ball28 room8)
Adding (free robot1 rgripper1)

Checking next happening (time 45)
Deleting (carry robot2 ball22 lgripper2)
Adding (at ball22 room22)
Adding (free robot2 lgripper2)

Checking next happening (time 46)
Deleting (carry robot3 ball3 rgripper3)
Adding (at ball3 room6)
Adding (free robot3 rgripper3)

Checking next happening (time 47)
Deleting (at-robby robot1 room8)
Adding (at-robby robot1 room30)

Checking next happening (time 48)
Deleting (at-robby robot2 room22)
Adding (at-robby robot2 room7)

Checking next happening (time 49)
Deleting (at-robby robot3 room6)
Adding (at-robby robot3 room3)

Checking next happening (time 50)
Deleting (carry robot1 ball30 lgripper1)
Adding (at ball30 room30)
Adding (free robot1 lgripper1)

Checking next happening (time 51)
Deleting (at ball26 room3)
Deleting (free robot3 lgripper3)
Adding (carry robot3 ball26 lgripper3)

Checking next happening (time 52)
Deleting (at ball13 room3)
Deleting (free robot3 rgripper3)
Adding (carry robot3 ball13 rgripper3)

Checking next happening (time 53)
Deleting (at-robby robot2 room7)
Adding (at-robby robot2 room5)

Checking next happening (time 54)
Deleting (at-robby robot1 room30)
Adding (at-robby robot1 room7)

Checking next happening (time 55)
Deleting (at-robby robot3 room3)
Adding (at-robby robot3 room18)

Checking next happening (time 56)
Deleting (at ball1 room5)
Deleting (free robot2 lgripper2)
Adding (carry robot2 ball1 lgripper2)

Checking next happening (time 57)
Deleting (carry robot3 ball13 rgripper3)
Adding (at ball13 room18)
Adding (free robot3 rgripper3)

Checking next happening (time 58)
Deleting (at-robby robot2 room5)
Adding (at-robby robot2 room32)

Checking next happening (time 59)
Deleting (at-robby robot1 room7)
Adding (at-robby robot1 room4)

Checking next happening (time 60)
Deleting (at-robby robot3 room18)
Adding (at-robby robot3 room1)

Checking next happening (time 61)
Deleting (at ball20 room32)
Deleting (free robot2 rgripper2)
Adding (carry robot2 ball20 rgripper2)

Checking next happening (time 62)
Deleting (at ball14 room4)
Deleting (free robot1 lgripper1)
Adding (carry robot1 ball14 lgripper1)

Checking next happening (time 63)
Deleting (carry robot3 ball26 lgripper3)
Adding (at ball26 room1)
Adding (free robot3 lgripper3)

Checking next happening (time 64)
Deleting (at-robby robot2 room32)
Adding (at-robby robot2 room5)

Checking next happening (time 65)
Deleting (at-robby robot1 room4)
Adding (at-robby robot1 room7)

Checking next happening (time 66)
Deleting (carry robot2 ball20 rgripper2)
Adding (at ball20 room5)
Adding (free robot2 rgripper2)

Checking next happening (time 67)
Deleting (at-robby robot3 room1)
Adding (at-robby robot3 room26)

Checking next happening (time 68)
Deleting (at-robby robot1 room7)
Adding (at-robby robot1 room6)

Checking next happening (time 69)
Deleting (at-robby robot2 room5)
Adding (at-robby robot2 room27)

Checking next happening (time 70)
Deleting (at ball9 room26)
Deleting (free robot3 lgripper3)
Adding (carry robot3 ball9 lgripper3)

Checking next happening (time 71)
Deleting (at-robby robot1 room6)
Adding (at-robby robot1 room25)

Checking next happening (time 72)
Deleting (carry robot2 ball1 lgripper2)
Adding (at ball1 room27)
Adding (free robot2 lgripper2)

Checking next happening (time 73)
Deleting (at-robby robot3 room26)
Adding (at-robby robot3 room4)

Checking next happening (time 74)
Deleting (at ball21 room27)
Deleting (free robot2 rgripper2)
Adding (carry robot2 ball21 rgripper2)

Checking next happening (time 75)
Deleting (carry robot1 ball14 lgripper1)
Adding (at ball14 room25)
Adding (free robot1 lgripper1)

Checking next happening (time 76)
Deleting (at ball18 room25)
Deleting (free robot1 rgripper1)
Adding (carry robot1 ball18 rgripper1)

Checking next happening (time 77)
Deleting (carry robot3 ball9 lgripper3)
Adding (at ball9 room4)
Adding (free robot3 lgripper3)

Checking next happening (time 78)
Deleting (at-robby robot2 room27)
Adding (at-robby robot2 room7)

Checking next happening (time 79)
Deleting (at-robby robot1 room25)
Adding (at-robby robot1 room7)

Checking next happening (time 80)
Deleting (carry robot2 ball21 rgripper2)
Adding (at ball21 room7)
Adding (free robot2 rgripper2)

Checking next happening (time 81)
Deleting (at-robby robot3 room4)
Adding (at-robby robot3 room27)

Checking next happening (time 82)
Deleting (at-robby robot1 room7)
Adding (at-robby robot1 room14)

Checking next happening (time 83)
Deleting (carry robot1 ball18 rgripper1)
Adding (at ball18 room14)
Adding (free robot1 rgripper1)

Checking next happening (time 84)
Deleting (at ball19 room27)
Deleting (free robot3 lgripper3)
Adding (carry robot3 ball19 lgripper3)

Checking next happening (time 85)
Deleting (at ball31 room14)
Deleting (free robot1 lgripper1)
Adding (carry robot1 ball31 lgripper1)

Checking next happening (time 86)
Deleting (at-robby robot2 room7)
Adding (at-robby robot2 room28)

Checking next happening (time 87)
Deleting (at-robby robot3 room27)
Adding (at-robby robot3 room25)

Checking next happening (time 88)
Deleting (at-robby robot1 room14)
Adding (at-robby robot1 room21)

Checking next happening (time 89)
Deleting (at ball27 room28)
Deleting (free robot2 lgripper2)
Adding (carry robot2 ball27 lgripper2)

Checking next happening (time 90)
Deleting (at ball24 room28)
Deleting (free robot2 rgripper2)
Adding (carry robot2 ball24 rgripper2)

Checking next happening (time 91)
Deleting (carry robot3 ball19 lgripper3)
Adding (at ball19 room25)
Adding (free robot3 lgripper3)

Checking next happening (time 92)
Deleting (carry robot1 ball31 lgripper1)
Adding (at ball31 room21)
Adding (free robot1 lgripper1)

Checking next happening (time 93)
Deleting (at-robby robot2 room28)
Adding (at-robby robot2 room29)

Checking next happening (time 94)
Deleting (carry robot2 ball27 lgripper2)
Adding (at ball27 room29)
Adding (free robot2 lgripper2)

Checking next happening (time 95)
Deleting (at-robby robot1 room21)
Adding (at-robby robot1 room7)

Checking next happening (time 96)
Deleting (at-robby robot3 room25)
Adding (at-robby robot3 room7)

Checking next happening (time 97)
Deleting (at-robby robot2 room29)
Adding (at-robby robot2 room1)

Checking next happening (time 98)
Deleting (at-robby robot1 room7)
Adding (at-robby robot1 room23)

Checking next happening (time 99)
Deleting (at-robby robot3 room7)
Adding (at-robby robot3 room15)

Checking next happening (time 100)
Deleting (carry robot2 ball24 rgripper2)
Adding (at ball24 room1)
Adding (free robot2 rgripper2)

Checking next happening (time 101)
Deleting (at ball10 room23)
Deleting (free robot1 lgripper1)
Adding (carry robot1 ball10 lgripper1)

Checking next happening (time 102)
Deleting (at ball17 room15)
Deleting (free robot3 lgripper3)
Adding (carry robot3 ball17 lgripper3)

Checking next happening (time 103)
Deleting (at-robby robot1 room23)
Adding (at-robby robot1 room15)

Checking next happening (time 104)
Deleting (at-robby robot3 room15)
Adding (at-robby robot3 room6)

Checking next happening (time 105)
Deleting (at-robby robot2 room1)
Adding (at-robby robot2 room14)

Checking next happening (time 106)
Deleting (carry robot1 ball10 lgripper1)
Adding (at ball10 room15)
Adding (free robot1 lgripper1)

Checking next happening (time 107)
Deleting (carry robot3 ball17 lgripper3)
Adding (at ball17 room6)
Adding (free robot3 lgripper3)

Checking next happening (time 108)
Deleting (at ball16 room14)
Deleting (free robot2 lgripper2)
Adding (carry robot2 ball16 lgripper2)

Checking next happening (time 109)
Deleting (at-robby robot2 room14)
Adding (at-robby robot2 room32)

Checking next happening (time 110)
Deleting (at-robby robot1 room15)
Adding (at-robby robot1 room7)

Checking next happening (time 111)
Deleting (at-robby robot3 room6)
Adding (at-robby robot3 room29)

Checking next happening (time 112)
Deleting (carry robot2 ball16 lgripper2)
Adding (at ball16 room32)
Adding (free robot2 lgripper2)

Checking next happening (time 113)
Deleting (at-robby robot3 room29)
Adding (at-robby robot3 room18)

Checking next happening (time 114)
Deleting (at-robby robot1 room7)
Adding (at-robby robot1 room18)

Checking next happening (time 115)
Deleting (at ball8 room18)
Deleting (free robot3 lgripper3)
Adding (carry robot3 ball8 lgripper3)

Checking next happening (time 116)
Deleting (at ball5 room18)
Deleting (free robot3 rgripper3)
Adding (carry robot3 ball5 rgripper3)

Checking next happening (time 117)
Deleting (at-robby robot2 room32)
Adding (at-robby robot2 room7)

Checking next happening (time 118)
Deleting (at ball25 room18)
Deleting (free robot1 lgripper1)
Adding (carry robot1 ball25 lgripper1)

Checking next happening (time 119)
Deleting (at-robby robot1 room18)
Adding (at-robby robot1 room7)

Checking next happening (time 120)
Deleting (at-robby robot3 room18)
Adding (at-robby robot3 room29)

Checking next happening (time 121)
Deleting (carry robot3 ball5 rgripper3)
Adding (at ball5 room29)
Adding (free robot3 rgripper3)

Checking next happening (time 122)
Deleting (carry robot1 ball25 lgripper1)
Adding (at ball25 room7)
Adding (free robot1 lgripper1)

Checking next happening (time 123)
Deleting (at-robby robot3 room29)
Adding (at-robby robot3 room14)

Checking next happening (time 124)
Deleting (carry robot3 ball8 lgripper3)
Adding (at ball8 room14)
Adding (free robot3 lgripper3)
Plan executed successfully - checking goal
Plan valid
Final value: 124 

Successful plans:
Value: 124
 /home/jfan5/Safety-gen/runs/benchmark/optic/grippers_20260215_225302/grippers/optic_results/grippers-n3-r33-o31-s31001.plan 124
